NAME          DCAP_2_4_3_500_SS69
ROWS
 N  OBJ
 L  CON1
 L  CON2
 L  CON3
 L  CON4
 L  CON5
 L  CON6
 L  CON7
 L  CON8
 L  CON9
 L  CON10
 L  CON11
 L  CON12
 E  CON13
 E  CON14
 E  CON15
 E  CON16
 E  CON17
 E  CON18
 E  CON19
 E  CON20
 E  CON21
 E  CON22
 E  CON23
 E  CON24
COLUMNS
    x[1,1]    OBJ       6.180167      CON1      1.000000    
    x[1,1]    CON7      -1.000000     CON8      -1.000000   
    x[1,1]    CON9      -1.000000   
    x[1,2]    OBJ       6.563535      CON2      1.000000    
    x[1,2]    CON8      -1.000000     CON9      -1.000000   
    x[1,3]    OBJ       7.443064      CON3      1.000000    
    x[1,3]    CON9      -1.000000   
    x[2,1]    OBJ       6.732585      CON4      1.000000    
    x[2,1]    CON10     -1.000000     CON11     -1.000000   
    x[2,1]    CON12     -1.000000   
    x[2,2]    OBJ       5.039546      CON5      1.000000    
    x[2,2]    CON11     -1.000000     CON12     -1.000000   
    x[2,3]    OBJ       6.054841      CON6      1.000000    
    x[2,3]    CON12     -1.000000   
    MARKER    'MARKER'                'INTORG'
    u[1,1]    OBJ       48.076654     CON1      -1.000000   
    u[1,2]    OBJ       20.066487     CON2      -1.000000   
    u[1,3]    OBJ       32.230043     CON3      -1.000000   
    u[2,1]    OBJ       49.996186     CON4      -1.000000   
    u[2,2]    OBJ       49.466655     CON5      -1.000000   
    u[2,3]    OBJ       27.484319     CON6      -1.000000   
    y[1,1,1]  OBJ       5.408415      CON7      0.911118    
    y[1,1,1]  CON13     1.000000    
    y[1,1,2]  OBJ       6.254265      CON8      1.111346    
    y[1,1,2]  CON14     1.000000    
    y[1,1,3]  OBJ       6.217229      CON9      1.492739    
    y[1,1,3]  CON15     1.000000    
    y[1,2,1]  OBJ       8.910582      CON7      1.073981    
    y[1,2,1]  CON16     1.000000    
    y[1,2,2]  OBJ       6.909537      CON8      0.783643    
    y[1,2,2]  CON17     1.000000    
    y[1,2,3]  OBJ       5.095515      CON9      0.612161    
    y[1,2,3]  CON18     1.000000    
    y[1,3,1]  OBJ       5.230800      CON7      0.953533    
    y[1,3,1]  CON19     1.000000    
    y[1,3,2]  OBJ       8.460070      CON8      1.418772    
    y[1,3,2]  CON20     1.000000    
    y[1,3,3]  OBJ       7.343703      CON9      0.998016    
    y[1,3,3]  CON21     1.000000    
    y[1,4,1]  OBJ       8.826014      CON7      0.914859    
    y[1,4,1]  CON22     1.000000    
    y[1,4,2]  OBJ       9.230325      CON8      1.087411    
    y[1,4,2]  CON23     1.000000    
    y[1,4,3]  OBJ       8.036713      CON9      0.965209    
    y[1,4,3]  CON24     1.000000    
    y[2,1,1]  OBJ       8.817456      CON10     0.911118    
    y[2,1,1]  CON13     1.000000    
    y[2,1,2]  OBJ       9.461562      CON11     1.111346    
    y[2,1,2]  CON14     1.000000    
    y[2,1,3]  OBJ       9.337904      CON12     1.492739    
    y[2,1,3]  CON15     1.000000    
    y[2,2,1]  OBJ       6.458774      CON10     1.073981    
    y[2,2,1]  CON16     1.000000    
    y[2,2,2]  OBJ       8.863092      CON11     0.783643    
    y[2,2,2]  CON17     1.000000    
    y[2,2,3]  OBJ       5.758371      CON12     0.612161    
    y[2,2,3]  CON18     1.000000    
    y[2,3,1]  OBJ       6.911809      CON10     0.953533    
    y[2,3,1]  CON19     1.000000    
    y[2,3,2]  OBJ       9.258474      CON11     1.418772    
    y[2,3,2]  CON20     1.000000    
    y[2,3,3]  OBJ       8.759092      CON12     0.998016    
    y[2,3,3]  CON21     1.000000    
    y[2,4,1]  OBJ       8.805815      CON10     0.914859    
    y[2,4,1]  CON22     1.000000    
    y[2,4,2]  OBJ       6.882637      CON11     1.087411    
    y[2,4,2]  CON23     1.000000    
    y[2,4,3]  OBJ       5.218354      CON12     0.965209    
    y[2,4,3]  CON24     1.000000    
    z[1,1]    OBJ       597.506503    CON13     1.000000    
    z[1,2]    OBJ       801.962476    CON14     1.000000    
    z[1,3]    OBJ       854.846549    CON15     1.000000    
    z[2,1]    OBJ       598.332458    CON16     1.000000    
    z[2,2]    OBJ       678.735378    CON17     1.000000    
    z[2,3]    OBJ       679.010928    CON18     1.000000    
    z[3,1]    OBJ       518.491044    CON19     1.000000    
    z[3,2]    OBJ       806.060823    CON20     1.000000    
    z[3,3]    OBJ       556.866628    CON21     1.000000    
    z[4,1]    OBJ       685.613724    CON22     1.000000    
    z[4,2]    OBJ       963.579768    CON23     1.000000    
    z[4,3]    OBJ       924.799261    CON24     1.000000    
    MARKER    'MARKER'                 'INTEND'
RHS
    RHS       CON1      -0.000000     CON2      -0.000000   
    RHS       CON3      -0.000000     CON4      -0.000000   
    RHS       CON5      -0.000000     CON6      -0.000000   
    RHS       CON7      -0.000000     CON8      -0.000000   
    RHS       CON9      -0.000000     CON10     -0.000000   
    RHS       CON11     -0.000000     CON12     -0.000000   
    RHS       CON13     1.000000      CON14     1.000000    
    RHS       CON15     1.000000      CON16     1.000000    
    RHS       CON17     1.000000      CON18     1.000000    
    RHS       CON19     1.000000      CON20     1.000000    
    RHS       CON21     1.000000      CON22     1.000000    
    RHS       CON23     1.000000      CON24     1.000000    
BOUNDS
 BV BOUND     u[1,1]  
 BV BOUND     u[1,2]  
 BV BOUND     u[1,3]  
 BV BOUND     u[2,1]  
 BV BOUND     u[2,2]  
 BV BOUND     u[2,3]  
 BV BOUND     y[1,1,1]
 BV BOUND     y[1,1,2]
 BV BOUND     y[1,1,3]
 BV BOUND     y[1,2,1]
 BV BOUND     y[1,2,2]
 BV BOUND     y[1,2,3]
 BV BOUND     y[1,3,1]
 BV BOUND     y[1,3,2]
 BV BOUND     y[1,3,3]
 BV BOUND     y[1,4,1]
 BV BOUND     y[1,4,2]
 BV BOUND     y[1,4,3]
 BV BOUND     y[2,1,1]
 BV BOUND     y[2,1,2]
 BV BOUND     y[2,1,3]
 BV BOUND     y[2,2,1]
 BV BOUND     y[2,2,2]
 BV BOUND     y[2,2,3]
 BV BOUND     y[2,3,1]
 BV BOUND     y[2,3,2]
 BV BOUND     y[2,3,3]
 BV BOUND     y[2,4,1]
 BV BOUND     y[2,4,2]
 BV BOUND     y[2,4,3]
 BV BOUND     z[1,1]  
 BV BOUND     z[1,2]  
 BV BOUND     z[1,3]  
 BV BOUND     z[2,1]  
 BV BOUND     z[2,2]  
 BV BOUND     z[2,3]  
 BV BOUND     z[3,1]  
 BV BOUND     z[3,2]  
 BV BOUND     z[3,3]  
 BV BOUND     z[4,1]  
 BV BOUND     z[4,2]  
 BV BOUND     z[4,3]  
ENDATA
